46
75
52	12
51	5
50	12
49	6
48	14
47	12
46	6
45	10
44	9
43	11
42	7
41	8
40	9
39	9
38	6
37	5
36	12
35	16
34	9
33	13
32	10
31	13
30	8
29	2
28	10
27	9
26	10
25	9
24	9
23	10
22	7
21	9
20	8
19	3
18	7
17	5
16	6
15	7
14	8
13	7
12	6
11	13
10	12
9	3
8	6
7	12
